10
25 18 16 37 70 30 5
62 50 6 66 60 42
8 34 46 45 12 15
49 65 75 29 76 7 57
40 53 64 11 26 44 23 77
9 74 39 4 59 36
17 72 58 38 47 63 27 2
1 24 52 43 67 69 21
56 22 71 51 3 20 54 31 73 32
61 48 13 33 35 55 28 19 14 41 68 10
